RobustCbss/GLKH-1.1/TMP/mtspf.pid6077.atsp
NAME : mtspf.pid6077.gtsp
TYPE : ATSP
DIMENSION : 27
EDGE_WEIGHT_TYPE : EXPLICIT
EDGE_WEIGHT_FORMAT : FULL_MATRIX
EDGE_WEIGHT_SECTION
999999 5368709 5368709 5368724 5368723 5368724 5368725 5368740 5368739 5368738 5368739 5368723 5368722 5368721 5368722 5368721 5368720 5368719 5368720 5368728 5368727 5368728 5368729 5368732 5368733 5368732 5368731 
5368709 999999 5368709 5368741 5368740 5368741 5368742 5368733 5368732 5368731 5368732 5368720 5368721 5368720 5368719 5368732 5368731 5368732 5368733 5368745 5368744 5368745 5368746 5368739 5368740 5368739 5368738 
5368709 5368709 999999 5368734 5368733 5368734 5368735 5368738 5368737 5368736 5368737 5368715 5368716 5368715 5368714 5368725 5368724 5368725 5368726 5368738 5368737 5368738 5368739 5368734 5368735 5368734 5368733 
5368709 5368709 5368709 999999 0 10737418 10737418 5368748 5368747 5368746 5368747 5368735 5368736 5368735 5368734 5368729 5368728 5368727 5368728 5368722 5368721 5368720 5368721 5368738 5368739 5368738 5368737 
5368709 5368709 5368709 10737418 999999 0 10737418 5368747 5368746 5368747 5368748 5368734 5368735 5368734 5368733 5368728 5368727 5368728 5368729 5368721 5368720 5368721 5368722 5368737 5368738 5368737 5368736 
5368709 5368709 5368709 10737418 10737418 999999 0 5368748 5368747 5368748 5368749 5368735 5368734 5368733 5368734 5368729 5368728 5368729 5368730 5368722 5368721 5368722 5368723 5368738 5368737 5368736 5368737 
5368709 5368709 5368709 0 10737418 10737418 999999 5368749 5368748 5368747 5368748 5368736 5368735 5368734 5368735 5368730 5368729 5368728 5368729 5368723 5368722 5368721 5368722 5368739 5368738 5368737 5368738 
5368709 5368709 5368709 5368748 5368749 5368748 5368747 999999 0 10737418 10737418 5368741 5368742 5368741 5368740 5368731 5368732 5368731 5368730 5368738 5368739 5368738 5368737 5368760 5368761 5368760 5368759 
5368709 5368709 5368709 5368747 5368748 5368749 5368748 10737418 999999 0 10737418 5368740 5368741 5368742 5368741 5368730 5368731 5368732 5368731 5368737 5368738 5368739 5368738 5368759 5368760 5368761 5368760 
5368709 5368709 5368709 5368746 5368747 5368748 5368747 10737418 10737418 999999 0 5368739 5368740 5368741 5368740 5368729 5368730 5368731 5368730 5368736 5368737 5368738 5368737 5368758 5368759 5368760 5368759 
5368709 5368709 5368709 5368747 5368748 5368747 5368746 0 10737418 10737418 999999 5368740 5368741 5368740 5368739 5368730 5368731 5368730 5368729 5368737 5368738 5368737 5368736 5368759 5368760 5368759 5368758 
5368709 5368709 5368709 5368733 5368734 5368735 5368734 5368741 5368740 5368739 5368740 999999 0 10737418 10737418 5368724 5368725 5368726 5368725 5368737 5368738 5368739 5368738 5368731 5368732 5368731 5368730 
5368709 5368709 5368709 5368734 5368735 5368736 5368735 5368740 5368739 5368740 5368741 10737418 999999 0 10737418 5368725 5368726 5368727 5368726 5368738 5368739 5368740 5368739 5368730 5368731 5368732 5368731 
5368709 5368709 5368709 5368735 5368734 5368735 5368736 5368741 5368740 5368741 5368742 10737418 10737418 999999 0 5368726 5368725 5368726 5368727 5368739 5368738 5368739 5368740 5368729 5368730 5368731 5368730 
5368709 5368709 5368709 5368734 5368733 5368734 5368735 5368742 5368741 5368740 5368741 0 10737418 10737418 999999 5368725 5368724 5368725 5368726 5368738 5368737 5368738 5368739 5368730 5368731 5368730 5368729 
5368709 5368709 5368709 5368729 5368730 5368729 5368728 5368731 5368730 5368729 5368730 5368726 5368727 5368726 5368725 999999 0 10737418 10737418 5368723 5368724 5368725 5368724 5368741 5368742 5368741 5368740 
5368709 5368709 5368709 5368728 5368729 5368730 5368729 5368730 5368729 5368730 5368731 5368725 5368726 5368725 5368724 10737418 999999 0 10737418 5368724 5368725 5368726 5368725 5368740 5368741 5368742 5368741 
5368709 5368709 5368709 5368727 5368728 5368729 5368728 5368731 5368730 5368731 5368732 5368726 5368725 5368724 5368725 10737418 10737418 999999 0 5368725 5368724 5368725 5368726 5368739 5368740 5368741 5368740 
5368709 5368709 5368709 5368728 5368729 5368728 5368727 5368732 5368731 5368730 5368731 5368727 5368726 5368725 5368726 0 10737418 10737418 999999 5368724 5368723 5368724 5368725 5368740 5368741 5368740 5368739 
5368709 5368709 5368709 5368722 5368723 5368722 5368721 5368738 5368737 5368736 5368737 5368739 5368740 5368739 5368738 5368725 5368726 5368725 5368724 999999 0 10737418 10737418 5368742 5368743 5368742 5368741 
5368709 5368709 5368709 5368721 5368722 5368723 5368722 5368737 5368736 5368737 5368738 5368738 5368739 5368738 5368737 5368724 5368725 5368724 5368723 10737418 999999 0 10737418 5368741 5368742 5368741 5368740 
5368709 5368709 5368709 5368720 5368721 5368722 5368721 5368738 5368737 5368738 5368739 5368739 5368738 5368737 5368738 5368725 5368724 5368723 5368724 10737418 10737418 999999 0 5368742 5368741 5368740 5368741 
5368709 5368709 5368709 5368721 5368722 5368721 5368720 5368739 5368738 5368737 5368738 5368740 5368739 5368738 5368739 5368726 5368725 5368724 5368725 0 10737418 10737418 999999 5368743 5368742 5368741 5368742 
5368709 5368709 5368709 5368736 5368737 5368738 5368737 5368760 5368759 5368758 5368759 5368731 5368730 5368729 5368730 5368741 5368740 5368739 5368740 5368740 5368741 5368742 5368741 999999 0 10737418 10737418 
5368709 5368709 5368709 5368737 5368738 5368739 5368738 5368759 5368758 5368759 5368760 5368730 5368729 5368730 5368731 5368740 5368739 5368740 5368741 5368741 5368742 5368743 5368742 10737418 999999 0 10737418 
5368709 5368709 5368709 5368738 5368737 5368738 5368739 5368760 5368759 5368760 5368761 5368731 5368730 5368731 5368732 5368741 5368740 5368741 5368742 5368742 5368741 5368742 5368743 10737418 10737418 999999 0 
5368709 5368709 5368709 5368737 5368736 5368737 5368738 5368761 5368760 5368759 5368760 5368732 5368731 5368730 5368731 5368742 5368741 5368740 5368741 5368741 5368740 5368741 5368742 0 10737418 10737418 999999 
EOF
